0 0 0 0
0 1 0 0
0 2 0 16
0 3 0 0
0 4 0 3
0 5 1 3
0 6 0 10
0 7 0 11
0 8 0 21
0 9 2 13
0 10 2 3
0 11 0 23
0 12 1 24
0 13 0 1
0 14 0 32
0 15 0 13
0 16 0 4
0 17 0 31
0 18 1 10
0 19 0 34
0 20 1 15
0 21 0 20
0 22 0 33
0 23 0 31
0 24 0 24
0 25 0 39
0 26 0 21
0 27 0 28
0 28 0 40
0 29 0 43
0 30 2 33
0 31 0 44
